presolving:
(round 1, fast)       106 del vars, 0 del conss, 0 add conss, 0 chg bounds, 0 chg sides, 0 chg coeffs, 0 upgd conss, 0 impls, 210 clqs
(round 2, exhaustive) 106 del vars, 0 del conss, 0 add conss, 0 chg bounds, 0 chg sides, 0 chg coeffs, 210 upgd conss, 0 impls, 210 clqs
   (1.0s) probing: 51/10920 (0.5%) - 0 fixings, 0 aggregations, 0 implications, 0 bound changes
   (1.0s) probing aborted: 50/50 successive totally useless probings
   Deactivated symmetry handling methods, since SCIP was built without symmetry detector (SYM=none).
presolving (3 rounds: 3 fast, 2 medium, 2 exhaustive):
 106 deleted vars, 0 deleted constraints, 0 added constraints, 0 tightened bounds, 0 added holes, 0 changed sides, 0 changed coefficients
 0 implications, 210 cliques
presolved problem has 11024 variables (10920 bin, 0 int, 0 impl, 104 cont) and 10922 constraints
    210 constraints of type <setppc>
  10712 constraints of type <linear>
Presolving Time: 1.00

 time | node  | left  |LP iter|LP it/n|mem/heur|mdpt |vars |cons |rows |cuts |sepa|confs|strbr|  dualbound   | primalbound  |  gap   | compl. 
p 1.0s|     1 |     0 |     1 |     - | vbounds|   0 |  11k|  10k|  10k|   0 |  0 |   7 |   0 | 0.000000e+00 | 3.705749e+04 |    Inf | unknown
  1.0s|     1 |     0 |   330 |     - |   135M |   0 |  11k|  10k|  10k|   0 |  0 |   7 |   0 | 9.035658e+03 | 3.705749e+04 | 310.12%| unknown
  1.0s|     1 |     0 |   437 |     - |   139M |   0 |  11k|  10k|  10k|  62 |  1 |   7 |   0 | 1.267887e+04 | 3.705749e+04 | 192.28%| unknown
  2.0s|     1 |     0 |   488 |     - |   141M |   0 |  11k|  10k|  11k| 109 |  2 |   7 |   0 | 1.298121e+04 | 3.705749e+04 | 185.47%| unknown
  2.0s|     1 |     0 |   511 |     - |   143M |   0 |  11k|  10k|  11k| 112 |  3 |   7 |   0 | 1.300971e+04 | 3.705749e+04 | 184.84%| unknown
  2.0s|     1 |     0 |   559 |     - |   144M |   0 |  11k|  10k|  11k| 144 |  4 |   7 |   0 | 1.302571e+04 | 3.705749e+04 | 184.49%| unknown
  2.0s|     1 |     0 |   600 |     - |   146M |   0 |  11k|  10k|  11k| 165 |  5 |   7 |   0 | 1.306294e+04 | 3.705749e+04 | 183.68%| unknown
  2.0s|     1 |     0 |   627 |     - |   147M |   0 |  11k|  10k|  11k| 179 |  6 |   7 |   0 | 1.306992e+04 | 3.705749e+04 | 183.53%| unknown
  3.0s|     1 |     0 |   658 |     - |   148M |   0 |  11k|  10k|  11k| 188 |  7 |   7 |   0 | 1.307043e+04 | 3.705749e+04 | 183.52%| unknown
  3.0s|     1 |     0 |   686 |     - |   150M |   0 |  11k|  10k|  11k| 203 |  8 |   7 |   0 | 1.307043e+04 | 3.705749e+04 | 183.52%| unknown
  3.0s|     1 |     0 |   743 |     - |   151M |   0 |  11k|  10k|  11k| 214 |  9 |   7 |   0 | 1.308444e+04 | 3.705749e+04 | 183.22%| unknown
  3.0s|     1 |     0 |   795 |     - |   154M |   0 |  11k|  10k|  11k| 240 | 10 |   7 |   0 | 1.312505e+04 | 3.705749e+04 | 182.34%| unknown
  4.0s|     1 |     0 |   867 |     - |   155M |   0 |  11k|  10k|  11k| 265 | 11 |   7 |   0 | 1.320998e+04 | 3.705749e+04 | 180.53%| unknown
  4.0s|     1 |     0 |   919 |     - |   156M |   0 |  11k|  10k|  11k| 289 | 12 |   7 |   0 | 1.327515e+04 | 3.705749e+04 | 179.15%| unknown
  4.0s|     1 |     0 |   966 |     - |   157M |   0 |  11k|  10k|  11k| 311 | 13 |   7 |   0 | 1.330652e+04 | 3.705749e+04 | 178.49%| unknown
 time | node  | left  |LP iter|LP it/n|mem/heur|mdpt |vars |cons |rows |cuts |sepa|confs|strbr|  dualbound   | primalbound  |  gap   | compl. 
  4.0s|     1 |     0 |   977 |     - |   158M |   0 |  11k|  10k|  11k| 318 | 14 |   7 |   0 | 1.330661e+04 | 3.705749e+04 | 178.49%| unknown
  5.0s|     1 |     0 |  1012 |     - |   161M |   0 |  11k|  10k|  11k| 332 | 15 |   7 |   0 | 1.331180e+04 | 3.705749e+04 | 178.38%| unknown
  5.0s|     1 |     0 |  1045 |     - |   162M |   0 |  11k|  10k|  11k| 341 | 16 |   7 |   0 | 1.331227e+04 | 3.705749e+04 | 178.37%| unknown
  5.0s|     1 |     0 |  1111 |     - |   163M |   0 |  11k|  10k|  11k| 363 | 17 |   7 |   0 | 1.333023e+04 | 3.705749e+04 | 178.00%| unknown
  6.0s|     1 |     0 |  1150 |     - |   165M |   0 |  11k|  10k|  11k| 384 | 18 |   7 |   0 | 1.333032e+04 | 3.705749e+04 | 177.99%| unknown
  6.0s|     1 |     0 |  1171 |     - |   166M |   0 |  11k|  10k|  11k| 399 | 19 |   7 |   0 | 1.333361e+04 | 3.705749e+04 | 177.93%| unknown
  6.0s|     1 |     0 |  1231 |     - |   167M |   0 |  11k|  10k|  11k| 412 | 20 |   7 |   0 | 1.334616e+04 | 3.705749e+04 | 177.66%| unknown
  6.0s|     1 |     0 |  1262 |     - |   167M |   0 |  11k|  10k|  11k| 431 | 21 |   7 |   0 | 1.334625e+04 | 3.705749e+04 | 177.66%| unknown
  7.0s|     1 |     0 |  1271 |     - |   167M |   0 |  11k|  10k|  11k| 437 | 22 |   7 |   0 | 1.334625e+04 | 3.705749e+04 | 177.66%| unknown
  7.0s|     1 |     0 |  1277 |     - |   167M |   0 |  11k|  10k|  11k| 441 | 23 |   7 |   0 | 1.334625e+04 | 3.705749e+04 | 177.66%| unknown
  7.0s|     1 |     0 |  1280 |     - |   167M |   0 |  11k|  10k|  11k| 444 | 24 |   7 |   0 | 1.334625e+04 | 3.705749e+04 | 177.66%| unknown
  7.0s|     1 |     0 |  1283 |     - |   167M |   0 |  11k|  10k|  11k| 447 | 25 |   7 |   0 | 1.334625e+04 | 3.705749e+04 | 177.66%| unknown
  8.0s|     1 |     0 |  1284 |     - |   167M |   0 |  11k|  10k|  11k| 448 | 26 |   7 |   0 | 1.334625e+04 | 3.705749e+04 | 177.66%| unknown
  8.0s|     1 |     0 |  1291 |     - |   167M |   0 |  11k|  10k|  11k| 456 | 27 |   7 |   0 | 1.334625e+04 | 3.705749e+04 | 177.66%| unknown
  8.0s|     1 |     0 |  1296 |     - |   168M |   0 |  11k|  10k|  11k| 462 | 28 |   7 |   0 | 1.334625e+04 | 3.705749e+04 | 177.66%| unknown
 time | node  | left  |LP iter|LP it/n|mem/heur|mdpt |vars |cons |rows |cuts |sepa|confs|strbr|  dualbound   | primalbound  |  gap   | compl. 
 31.0s|     1 |     2 |  8554 |     - |   171M |   0 |  11k|  10k|  11k| 462 | 30 |  10 |  43 | 1.335655e+04 | 3.705749e+04 | 177.45%| unknown
  407s|   100 |   101 | 20894 | 198.0 |   217M |  22 |  11k|  11k|  11k| 953 |  1 |  79 |1544 | 1.336627e+04 | 3.705749e+04 | 177.25%| unknown
o 422s|   106 |   107 | 23820 | 214.5 |rootsold|  22 |  11k|  11k|  11k| 963 |  2 |  79 |1584 | 1.336627e+04 | 2.637491e+04 |  97.32%| unknown
  536s|   200 |   201 | 31472 | 151.6 |   229M |  23 |  11k|  11k|  11k|1291 |  1 |  95 |2004 | 1.336833e+04 | 2.637491e+04 |  97.29%| unknown

SCIP Status        : solving was interrupted [time limit reached]
Solving Time (sec) : 600.00
Solving Nodes      : 288
Primal Bound       : +2.63749142575909e+04 (2 solutions)
Dual Bound         : +1.33683336732008e+04
Gap                : 97.29 %
Trying to solve problem with MTZ Solver Method...
Starting Solver, time limit setted to 10 minutes
Route:  [[0, 1], [1, 11], [2, 5], [3, 16], [4, 8], [5, 6], [6, 9], [7, 3], [8, 7], [9, 14], [10, 2], [11, 10], [12, 13], [13, 4], [14, 20], [15, 17], [16, 15], [17, 24], [18, 98], [19, 27], [20, 21], [21, 28], [22, 19], [23, 18], [24, 25], [25, 26], [26, 23], [27, 29], [28, 102], [29, 31], [30, 32], [31, 30], [32, 35], [33, 12], [34, 33], [35, 36], [36, 38], [37, 34], [38, 37], [39, 46], [40, 41], [41, 45], [42, 52], [43, 40], [44, 39], [45, 42], [46, 50], [47, 48], [48, 44], [49, 47], [50, 53], [51, 57], [52, 51], [53, 56], [54, 103], [55, 54], [56, 104], [57, 65], [58, 55], [59, 60], [60, 64], [61, 63], [62, 61], [63, 66], [64, 73], [65, 59], [66, 67], [67, 70], [68, 69], [69, 62], [70, 77], [71, 78], [72, 68], [73, 80], [74, 76], [75, 72], [76, 71], [77, 81], [78, 85], [79, 75], [80, 74], [81, 82], [82, 84], [83, 99], [84, 83], [85, 79], [86, 87], [87, 94], [88, 92], [89, 88], [90, 101], [91, 90], [92, 97], [93, 86], [94, 0], [95, 91], [96, 100], [97, 95], [98, 89], [99, 93], [100, 49], [101, 96], [102, 22], [103, 43], [104, 58]]
An Otimal Solution was found, yay!
Objective value: 26374.9
Problem solved in 36537 iterations
Problem solved in 288 nodes
Final Route Configuration succesfully created at:
data/routes/lin105.csv
